sat
(model 
  (define-fun sym!td!0!b () Bool
    true)
  (define-fun sym!td!0!c () Bool
    false)
  (define-fun sym!td!0!a () Bool
    true)
  (define-fun sym!td!0!d () Bool
    false)
  (define-fun deviation! () Real
    0.0)
)
